(set-logic QF_BV)
(declare-fun x0 () (_ BitVec 16))
(declare-fun x1 () (_ BitVec 32))
(declare-fun x2 () (_ BitVec 32))
(declare-fun x3 () Bool)
(assert (let ( (?v_195 ((_ zero_extend 16) x0))) (let ( (?v_196 (bvadd ?v_195 (_ bv0 32)))) (and true (= x1 ?v_196) (= (bvadd (_ bv0 32) x1) x2) true (not (= ?v_196 x2)) true x3 true))))
(check-sat)
(exit)
